1
150
81
20 15
21 16
22 9
23 8
24 7
25 13
26 17
27 10
28 14
29 13
30 5
31 16
32 15
33 12
34 12
35 17
36 7
37 16
38 11
39 11
40 20
41 14
42 12
43 11
44 9
45 6
46 13
47 12
48 10
49 9
50 11
51 16
52 12
53 5
54 9
55 11
56 16
57 13
58 10
59 13
60 13
61 8
62 15
63 13
64 14
65 15
66 10
67 17
68 11
69 12
70 15
71 7
72 11
73 7
74 15
75 16
76 17
77 15
78 12
79 11
80 12
81 14
82 21
83 16
84 11
85 12
86 12
87 15
88 9
89 13
90 9
91 16
92 17
93 18
94 12
95 9
96 8
97 19
98 11
99 9
100 7
